牛客/2019暑期多校训练营/数据/9_D_Knapsack Cryptosystem/5.in
36 362173039028526
18227792438887 26502640514120 24824544225699 11515407285203 8043581341489 4340488664031 1506058706890 24364835695765 24948652405233 4653584050420 7225767497144 26026171431704 9978746947324 10769162243918 20918728954376 19009944305813 19759804041248 11974776993944 9489127274213 11479681194578 4618578307372 5807038247030 5668917946547 18125177273555 16561701164458 13317892243504 18689712814602 8830837402803 24068944362677 22512108161024 14291280594057 21962589583851 22221221773006 7687028886672 17116989100395 4976472181827
